
Gurobi 7.5.2 (linux64) logging started Sat Jul  7 17:32:39 2018

Changed value of parameter LogFile to result/ilp/simNo_10-n_100-m_40-s_4-minVAF_0.05-cov_10000-k_1-fn_0.25-fp_0.0001-na_0.15.ILP.gurobiSolverLog
   Prev: gurobi.log  Default: 
Changed value of parameter TimeLimit to 86400.0
   Prev: 1e+100  Min: 0.0  Max: 1e+100  Default: 1e+100
Optimize a model with 639293 rows, 10765 columns and 1940420 nonzeros
Variable types: 0 continuous, 10765 integer (10765 binary)
Coefficient statistics:
  Matrix range     [1e-04, 4e+00]
  Objective range  [1e+00, 2e+01]
  Bounds range     [1e+00, 1e+00]
  RHS range        [3e-01, 2e+00]
Found heuristic solution: objective -14123.44785
Presolve removed 120960 rows and 904 columns (presolve time = 5s) ...
Presolve removed 123496 rows and 904 columns (presolve time = 10s) ...
Presolve removed 123496 rows and 904 columns (presolve time = 15s) ...
Presolve removed 123955 rows and 904 columns (presolve time = 23s) ...
Presolve removed 169855 rows and 1363 columns (presolve time = 25s) ...
Presolve removed 169855 rows and 1363 columns (presolve time = 31s) ...
Presolve removed 169855 rows and 1363 columns
Presolve time: 32.81s
Presolved: 469438 rows, 9402 columns, 1415260 nonzeros
Variable types: 0 continuous, 9402 integer (9402 binary)
Presolved: 9402 rows, 478840 columns, 1424662 nonzeros

Presolve removed 9402 rows and 478840 columns

Root simplex log...

Iteration    Objective       Primal Inf.    Dual Inf.      Time
       0    1.8138804e+01   0.000000e+00   7.155600e+04     38s
   14002   -2.4705544e+02   0.000000e+00   2.256042e+05     40s
   30308   -3.4413683e+02   0.000000e+00   8.110369e+04     45s
   42338   -3.7509019e+02   0.000000e+00   9.831520e+04     50s
   55516   -4.0988855e+02   0.000000e+00   7.750000e+01     56s
   55685   -4.0960258e+02   0.000000e+00   0.000000e+00     57s
   55685   -4.0960258e+02   0.000000e+00   0.000000e+00     58s

Root relaxation: objective -4.096026e+02, 55685 iterations, 22.92 seconds
Total elapsed time = 101.37s
Total elapsed time = 144.06s

    Nodes    |    Current Node    |     Objective Bounds      |     Work
 Expl Unexpl |  Obj  Depth IntInf | Incumbent    BestBd   Gap | It/Node Time

     0     0 -409.60258    0 1519 -14123.448 -409.60258  97.1%     -  166s
H    0     0                    -826.6218325 -409.60258  50.4%     -  170s
H    0     0                    -543.3546178 -409.60258  24.6%     -  171s
H    0     0                    -515.5099576 -409.60258  20.5%     -  172s
     0     0 -413.39988    0 1504 -515.50996 -413.39988  19.8%     -  212s
     0     0 -413.39988    0 1501 -515.50996 -413.39988  19.8%     -  231s
     0     0 -416.91291    0 1506 -515.50996 -416.91291  19.1%     -  445s
H    0     0                    -508.4130321 -416.91291  18.0%     -  451s
     0     0 -417.14828    0 1502 -508.41303 -417.14828  18.0%     -  479s
     0     0 -417.29115    0 1502 -508.41303 -417.29115  17.9%     -  487s
     0     0 -417.31113    0 1501 -508.41303 -417.31113  17.9%     -  496s
     0     0 -419.08824    0 1483 -508.41303 -419.08824  17.6%     -  674s
     0     0 -419.09166    0 1644 -508.41303 -419.09166  17.6%     -  685s
     0     0 -420.04432    0 1508 -508.41303 -420.04432  17.4%     -  743s
H    0     0                    -506.6502930 -420.04432  17.1%     -  747s
     0     0 -420.24633    0 1508 -506.65029 -420.24633  17.1%     -  790s
     0     0 -420.25299    0 1653 -506.65029 -420.25299  17.1%     -  803s
     0     0 -420.25299    0 1653 -506.65029 -420.25299  17.1%     -  806s
     0     0 -422.55425    0 1465 -506.65029 -422.55425  16.6%     - 1178s
     0     0 -422.78005    0 1636 -506.65029 -422.78005  16.6%     - 1223s
     0     0 -422.78005    0 1635 -506.65029 -422.78005  16.6%     - 1225s
     0     0 -423.50365    0 1582 -506.65029 -423.50365  16.4%     - 1408s
H    0     0                    -496.5249620 -423.50365  14.7%     - 1429s
     0     0 -423.50365    0 1582 -496.52496 -423.50365  14.7%     - 1433s
     0     0 -423.84162    0 1530 -496.52496 -423.84162  14.6%     - 1542s
     0     0 -424.05247    0 1691 -496.52496 -424.05247  14.6%     - 1647s
     0     0 -424.26341    0 1697 -496.52496 -424.26341  14.6%     - 1659s
     0     0 -424.26341    0 1696 -496.52496 -424.26341  14.6%     - 1662s
     0     0 -426.30478    0 1447 -496.52496 -426.30478  14.1%     - 2536s
     0     0 -426.49707    0 1608 -496.52496 -426.49707  14.1%     - 2769s
     0     0 -426.68907    0 1386 -496.52496 -426.68907  14.1%     - 2981s
     0     0 -426.68907    0 1363 -496.52496 -426.68907  14.1%     - 2985s
     0     0 -427.23538    0 1665 -496.52496 -427.23538  14.0%     - 13169s
     0     0 -427.23538    0 1677 -496.52496 -427.23538  14.0%     - 13235s
     0     0 -427.95259    0 1647 -496.52496 -427.95259  13.8%     - 13531s
     0     0 -427.95259    0 1647 -496.52496 -427.95259  13.8%     - 13611s
     0     0 -429.33987    0 1721 -496.52496 -429.33987  13.5%     - 17251s
     0     0 -429.40811    0 1627 -496.52496 -429.40811  13.5%     - 17290s
     0     0 -429.40811    0 1634 -496.52496 -429.40811  13.5%     - 17295s
     0     0 -430.89526    0 1688 -496.52496 -430.89526  13.2%     - 21697s
     0     0 -430.89526    0 1690 -496.52496 -430.89526  13.2%     - 21710s
     0     0 -432.15493    0 1825 -496.52496 -432.15493  13.0%     - 22161s
     0     0 -432.45906    0 1816 -496.52496 -432.45906  12.9%     - 22558s
     0     0 -432.88152    0 1813 -496.52496 -432.88152  12.8%     - 22579s
     0     0 -432.88152    0 1814 -496.52496 -432.88152  12.8%     - 22584s
     0     0 -433.73318    0 1738 -496.52496 -433.73318  12.6%     - 23194s
H    0     0                    -495.2592956 -433.73318  12.4%     - 23257s
     0     0 -434.38869    0 1634 -495.25930 -434.38869  12.3%     - 23361s
     0     0 -434.39360    0 1639 -495.25930 -434.39360  12.3%     - 23373s
     0     0 -434.39490    0 1604 -495.25930 -434.39490  12.3%     - 23383s
     0     0 -434.83045    0 1691 -495.25930 -434.83045  12.2%     - 23591s
     0     0 -435.09114    0 1696 -495.25930 -435.09114  12.1%     - 23901s
     0     0 -435.09114    0 1700 -495.25930 -435.09114  12.1%     - 23908s
     0     0 -435.45274    0 1687 -495.25930 -435.45274  12.1%     - 25471s
     0     0 -435.47347    0 1690 -495.25930 -435.47347  12.1%     - 25543s
     0     0 -435.54233    0 1698 -495.25930 -435.54233  12.1%     - 25644s
     0     0 -435.57895    0 1688 -495.25930 -435.57895  12.1%     - 25714s
     0     0 -435.57895    0 1694 -495.25930 -435.57895  12.1%     - 25722s
     0     0 -436.24609    0 1596 -495.25930 -436.24609  11.9%     - 28137s
     0     0 -436.91087    0 1684 -495.25930 -436.91087  11.8%     - 28885s
     0     0 -437.00433    0 1685 -495.25930 -437.00433  11.8%     - 29080s
     0     0 -437.01680    0 1689 -495.25930 -437.01680  11.8%     - 29093s
     0     0 -437.02392    0 1692 -495.25930 -437.02392  11.8%     - 29107s
     0     0 -437.03528    0 1693 -495.25930 -437.03528  11.8%     - 29127s
     0     0 -437.03730    0 1693 -495.25930 -437.03730  11.8%     - 29143s
     0     0 -438.35133    0 1648 -495.25930 -438.35133  11.5%     - 32927s
     0     0 -438.40715    0 1736 -495.25930 -438.40715  11.5%     - 33078s
     0     0 -438.41258    0 1788 -495.25930 -438.41258  11.5%     - 33088s
     0     0 -438.42135    0 1770 -495.25930 -438.42135  11.5%     - 33096s
     0     0 -438.42326    0 1770 -495.25930 -438.42326  11.5%     - 33102s
     0     0 -439.79744    0 1758 -495.25930 -439.79744  11.2%     - 35637s
     0     0 -439.92580    0 1778 -495.25930 -439.92580  11.2%     - 35736s
     0     0 -440.01128    0 1746 -495.25930 -440.01128  11.2%     - 35805s
     0     0 -440.04394    0 1755 -495.25930 -440.04394  11.1%     - 35822s
     0     0 -440.04780    0 1759 -495.25930 -440.04780  11.1%     - 35856s
     0     0 -440.05152    0 1760 -495.25930 -440.05152  11.1%     - 35877s
     0     0 -440.05152    0 1760 -495.25930 -440.05152  11.1%     - 35879s
     0     0 -441.66463    0 1753 -495.25930 -441.66463  10.8%     - 45519s
     0     0 -441.79281    0 1651 -495.25930 -441.79281  10.8%     - 45603s
     0     0 -441.81504    0 1749 -495.25930 -441.81504  10.8%     - 45625s
     0     0 -441.87453    0 1653 -495.25930 -441.87453  10.8%     - 45643s
     0     0 -441.87453    0 1654 -495.25930 -441.87453  10.8%     - 45650s
     0     0 -442.45760    0 1615 -495.25930 -442.45760  10.7%     - 46421s
     0     0 -442.86369    0 1752 -495.25930 -442.86369  10.6%     - 47150s
     0     0 -443.01222    0 1762 -495.25930 -443.01222  10.5%     - 47241s
     0     0 -443.01462    0 1764 -495.25930 -443.01462  10.5%     - 47254s
     0     0 -443.34534    0 1714 -495.25930 -443.34534  10.5%     - 47540s
     0     0 -443.62992    0 1737 -495.25930 -443.62992  10.4%     - 48148s
     0     0 -443.73974    0 1775 -495.25930 -443.73974  10.4%     - 48215s
     0     0 -443.74420    0 1770 -495.25930 -443.74420  10.4%     - 48226s
     0     0 -443.74756    0 1776 -495.25930 -443.74756  10.4%     - 48240s
     0     0 -445.21846    0 1657 -495.25930 -445.21846  10.1%     - 49186s
     0     0 -445.24571    0 1653 -495.25930 -445.24571  10.1%     - 49225s
     0     0 -445.28695    0 1676 -495.25930 -445.28695  10.1%     - 49304s
     0     0 -445.30475    0 1660 -495.25930 -445.30475  10.1%     - 49342s
     0     0 -445.31553    0 1630 -495.25930 -445.31553  10.1%     - 49405s
     0     0 -445.31553    0 1685 -495.25930 -445.31553  10.1%     - 49418s
     0     0 -446.39524    0 1753 -495.25930 -446.39524  9.87%     - 58477s
     0     0 -446.50861    0 1900 -495.25930 -446.50861  9.84%     - 58627s
     0     0 -446.56688    0 1893 -495.25930 -446.56688  9.83%     - 59059s
     0     0 -446.58796    0 1896 -495.25930 -446.58796  9.83%     - 59121s
     0     0 -446.59204    0 1907 -495.25930 -446.59204  9.83%     - 59132s
     0     0 -446.59796    0 1906 -495.25930 -446.59796  9.83%     - 59142s
     0     0 -446.59804    0 1907 -495.25930 -446.59804  9.83%     - 59149s
     0     0 -447.27486    0 1675 -495.25930 -447.27486  9.69%     - 61100s
     0     0 -448.14809    0 1844 -495.25930 -448.14809  9.51%     - 62295s
     0     0 -448.29322    0 1836 -495.25930 -448.29322  9.48%     - 62431s
     0     0 -448.33223    0 1752 -495.25930 -448.33223  9.48%     - 62460s
     0     0 -448.34206    0 1759 -495.25930 -448.34206  9.47%     - 62488s
     0     0 -448.34787    0 1841 -495.25930 -448.34787  9.47%     - 62502s
     0     0 -448.34787    0 1843 -495.25930 -448.34787  9.47%     - 62505s
     0     0 -448.64498    0 1795 -495.25930 -448.64498  9.41%     - 62693s
     0     0 -449.08522    0 1801 -495.25930 -449.08522  9.32%     - 62882s
     0     0 -449.27496    0 1810 -495.25930 -449.27496  9.28%     - 62993s
     0     0 -449.28920    0 1785 -495.25930 -449.28920  9.28%     - 63032s
     0     0 -449.29046    0 1814 -495.25930 -449.29046  9.28%     - 63043s
     0     0 -449.42534    0 1800 -495.25930 -449.42534  9.25%     - 63136s
     0     0 -449.83778    0 1798 -495.25930 -449.83778  9.17%     - 63600s
     0     0 -449.95696    0 1791 -495.25930 -449.95696  9.15%     - 63662s
     0     0 -449.96046    0 1811 -495.25930 -449.96046  9.15%     - 63675s
     0     0 -451.13662    0 1823 -495.25930 -451.13662  8.91%     - 70761s
     0     0 -451.42100    0 1904 -495.25930 -451.42100  8.85%     - 70864s
     0     0 -451.44938    0 1920 -495.25930 -451.44938  8.85%     - 70887s
     0     0 -451.45985    0 1829 -495.25930 -451.45985  8.84%     - 70902s
     0     0 -451.46342    0 1829 -495.25930 -451.46342  8.84%     - 70911s
     0     0 -452.27717    0 1815 -495.25930 -452.27717  8.68%     - 71079s
     0     0 -452.64783    0 1807 -495.25930 -452.64783  8.60%     - 71222s
     0     0 -452.93609    0 1802 -495.25930 -452.93609  8.55%     - 71340s
     0     0 -452.97189    0 1807 -495.25930 -452.97189  8.54%     - 71358s
     0     0 -452.97285    0 1811 -495.25930 -452.97285  8.54%     - 71373s
     0     0 -454.20226    0 1793 -495.25930 -454.20226  8.29%     - 71910s
     0     0 -454.59349    0 1796 -495.25930 -454.59349  8.21%     - 72193s
     0     0 -454.73076    0 1814 -495.25930 -454.73076  8.18%     - 72406s
     0     0 -454.77083    0 1816 -495.25930 -454.77083  8.18%     - 72441s
     0     0 -454.79295    0 1819 -495.25930 -454.79295  8.17%     - 72453s
     0     0 -454.79903    0 1815 -495.25930 -454.79903  8.17%     - 72460s
     0     0 -454.80140    0 1815 -495.25930 -454.80140  8.17%     - 72468s
     0     0 -454.83631    0 1808 -495.25930 -454.83631  8.16%     - 72506s
H    0     0                    -493.9942293 -454.83631  7.93%     - 72535s
     0     0 -455.28810    0 1810 -493.99423 -455.28810  7.84%     - 72680s
     0     0 -455.53382    0 1811 -493.99423 -455.53382  7.79%     - 72746s
     0     0 -455.58283    0 1797 -493.99423 -455.58283  7.78%     - 72769s
     0     0 -455.62750    0 1824 -493.99423 -455.62750  7.77%     - 72794s
     0     0 -455.64266    0 1816 -493.99423 -455.64266  7.76%     - 72805s
     0     0 -455.65551    0 1815 -493.99423 -455.65551  7.76%     - 72822s
     0     0 -455.65769    0 1814 -493.99423 -455.65769  7.76%     - 72827s
     0     0 -456.17806    0 1781 -493.99423 -456.17806  7.66%     - 73285s
     0     0 -456.37343    0 1785 -493.99423 -456.37343  7.62%     - 73466s
     0     0 -456.42923    0 1784 -493.99423 -456.42923  7.60%     - 73542s
     0     0 -456.50415    0 1776 -493.99423 -456.50415  7.59%     - 73614s
     0     0 -456.50920    0 1773 -493.99423 -456.50920  7.59%     - 73629s
     0     0 -456.51160    0 1784 -493.99423 -456.51160  7.59%     - 73639s
     0     0 -457.04982    0 1757 -493.99423 -457.04982  7.48%     - 73833s
     0     0 -457.29543    0 1759 -493.99423 -457.29543  7.43%     - 74008s
     0     0 -457.32656    0 1749 -493.99423 -457.32656  7.42%     - 74080s
     0     0 -457.32762    0 1747 -493.99423 -457.32762  7.42%     - 74095s
     0     0 -457.82554    0 1746 -493.99423 -457.82554  7.32%     - 75212s
     0     0 -457.82711    0 1767 -493.99423 -457.82711  7.32%     - 75252s
     0     0 -458.16068    0 1761 -493.99423 -458.16068  7.25%     - 75574s
     0     0 -458.16953    0 1768 -493.99423 -458.16953  7.25%     - 75635s
     0     0 -458.19934    0 1766 -493.99423 -458.19934  7.25%     - 75679s
     0     0 -458.20165    0 1771 -493.99423 -458.20165  7.25%     - 75693s
     0     0 -458.98497    0 1678 -493.99423 -458.98497  7.09%     - 81497s
     0     0 -458.98497    0 1690 -493.99423 -458.98497  7.09%     - 81521s
     0     0 -459.08607    0 1682 -493.99423 -459.08607  7.07%     - 81537s
     0     0 -459.11319    0 1684 -493.99423 -459.11319  7.06%     - 81569s
     0     0 -459.11319    0 1681 -493.99423 -459.11319  7.06%     - 81573s
     0     0 -459.11787    0 1684 -493.99423 -459.11787  7.06%     - 81597s
     0     0 -459.11894    0 1686 -493.99423 -459.11894  7.06%     - 81637s
     0     0          -    0      -493.99423 -459.11894  7.06%     - 86400s

Cutting planes:
  Gomory: 2
  MIR: 3
  Zero half: 468

Explored 1 nodes (2581882 simplex iterations) in 86400.37 seconds
Thread count was 1 (of 80 available processors)

Solution count 9: -493.994 -495.259 -496.525 ... -14123.4

Time limit reached
Best objective -4.939942292592e+02, best bound -4.591189394621e+02, gap 7.0599%
